
Gurobi 12.0.2 (win64) logging started Wed Nov 26 14:50:03 2025

Set parameter LogFile to value "resultados DATA_1_n50m10b2d2\instancia_1_log.txt"
Set parameter TimeLimit to value 3600
Gurobi Optimizer version 12.0.2 build v12.0.2rc0 (win64 - Windows 10.0 (19045.2))

CPU model: Intel(R) Core(TM) i5-6300U CPU @ 2.40GHz, instruction set [SSE2|AVX|AVX2]
Thread count: 2 physical cores, 4 logical processors, using up to 4 threads

Non-default parameters:
TimeLimit  3600

Optimize a model with 1506 rows, 3034 columns and 852560 nonzeros
Model fingerprint: 0xd5aaa494
Variable types: 0 continuous, 3034 integer (3034 binary)
Coefficient statistics:
  Matrix range     [1e+00, 1e+00]
  Objective range  [3e-02, 3e-01]
  Bounds range     [1e+00, 1e+00]
  RHS range        [1e+00, 1e+01]
Found heuristic solution: objective 0.4764960
Presolve removed 136 rows and 2852 columns
Presolve time: 0.65s
Presolved: 1370 rows, 182 columns, 36791 nonzeros
Found heuristic solution: objective 0.0673920
Variable types: 0 continuous, 182 integer (182 binary)

Root relaxation: objective 8.365660e-01, 604 iterations, 0.13 seconds (0.07 work units)

    Nodes    |    Current Node    |     Objective Bounds      |     Work
 Expl Unexpl |  Obj  Depth IntInf | Incumbent    BestBd   Gap | It/Node Time

     0     0    0.83657    0   92    0.47650    0.83657  75.6%     -    1s
H    0     0                       0.4954080    0.83657  68.9%     -    1s
H    0     0                       0.6280320    0.83657  33.2%     -    1s
H    0     0                       0.6809520    0.83657  22.9%     -    1s
H    0     0                       0.7607360    0.83657  10.0%     -    1s
     0     0    0.82081    0   92    0.76074    0.82081  7.90%     -    2s
     0     0    0.81890    0   80    0.76074    0.81890  7.65%     -    2s
     0     0    0.81498    0   72    0.76074    0.81498  7.13%     -    2s
H    0     0                       0.7738640    0.81498  5.31%     -    2s
     0     0    0.81410    0   84    0.77386    0.81410  5.20%     -    2s
     0     0    0.81223    0   78    0.77386    0.81223  4.96%     -    2s
     0     0    0.81208    0   78    0.77386    0.81208  4.94%     -    3s
     0     0    0.81098    0   81    0.77386    0.81098  4.80%     -    3s
H    0     0                       0.7752080    0.81098  4.62%     -    3s
     0     0    0.81087    0   91    0.77521    0.81087  4.60%     -    3s
     0     0    0.81079    0   96    0.77521    0.81079  4.59%     -    3s
     0     0    0.81075    0   98    0.77521    0.81075  4.59%     -    3s
     0     0    0.81063    0   93    0.77521    0.81063  4.57%     -    4s
     0     0    0.81063    0   95    0.77521    0.81063  4.57%     -    4s
     0     0    0.80999    0   92    0.77521    0.80999  4.49%     -    4s
     0     0    0.80992    0   97    0.77521    0.80992  4.48%     -    4s
     0     0    0.80977    0   98    0.77521    0.80977  4.46%     -    4s
     0     0    0.80975    0  100    0.77521    0.80975  4.46%     -    4s
     0     0    0.80975    0   97    0.77521    0.80975  4.46%     -    4s
     0     0    0.80971    0   94    0.77521    0.80971  4.45%     -    4s
     0     0    0.80971    0   94    0.77521    0.80971  4.45%     -    4s
     0     2    0.80971    0   94    0.77521    0.80971  4.45%     -    5s
*    4     4               2       0.7883360    0.80966  2.71%   135    5s

Cutting planes:
  Gomory: 2
  Clique: 17
  MIR: 1
  Zero half: 15

Explored 48 nodes (4301 simplex iterations) in 5.77 seconds (2.56 work units)
Thread count was 4 (of 4 available processors)

Solution count 9: 0.788336 0.775208 0.773864 ... 0.067392
No other solutions better than 0.788336

Optimal solution found (tolerance 1.00e-04)
Best objective 7.883360000000e-01, best bound 7.883360000000e-01, gap 0.0000%
